p tw 128 138
1 2
2 41
3 14
4 117
5 6
6 7
7 8
8 9
8 20
9 10
10 11
11 12
12 13
12 20
13 15
14 25
15 16
15 20
16 17
16 20
17 18
18 19
19 20
20 21
21 22
22 23
22 30
23 24
24 26
25 34
26 27
26 30
27 28
28 29
29 30
30 31
31 32
32 33
34 35
35 36
36 37
37 38
37 42
38 39
39 40
40 32
41 52
42 43
43 44
44 45
45 46
46 47
47 48
48 49
49 50
49 58
50 51
51 53
52 63
53 54
54 55
55 56
56 57
57 32
58 59
59 60
60 61
61 62
62 64
63 74
64 65
65 66
66 67
66 79
67 68
68 69
69 70
70 71
71 72
72 73
73 75
74 85
75 76
76 77
77 78
78 32
79 80
80 81
81 82
82 83
83 84
84 86
85 96
85 107
86 87
87 88
88 89
89 90
90 91
91 92
92 93
93 94
94 95
95 97
96 32
97 98
98 99
99 100
100 101
101 102
102 103
103 104
104 105
105 106
106 108
107 118
108 109
109 110
110 111
111 112
112 113
113 114
114 115
115 116
116 117
117 119
118 3
119 120
120 121
120 5
121 122
122 123
123 124
124 125
125 126
126 127
127 128
128 4
